NAME : traveling-santa-2018-prime-paths.29810.tour
COMMENT : Length = 29810
COMMENT : Found by LKH [Keld Helsgaun] Sun Jun 12 19:59:38 2022
TYPE : TOUR
DIMENSION : 100
TOUR_SECTION
1
65
71
43
21
59
95
48
90
92
7
34
15
10
68
37
64
72
67
13
36
8
56
55
69
9
35
2
94
60
57
76
11
25
78
38
83
18
91
51
16
40
49
85
47
87
6
24
70
77
97
80
4
29
31
96
17
32
27
3
46
54
58
23
99
62
79
41
61
53
75
88
5
82
44
63
12
20
30
22
74
39
93
98
26
73
28
89
52
14
66
45
50
42
19
100
33
81
84
86
-1
EOF
